
  27    4
   1   1   1   1

   0   0   0   0   0  13 2 3 4 5 7 8 9 10 11 12 24 25 26 
   9   0   1   0   0   7   23   22   21   20   18   15   6
   1   1   0   1   0   4   16   15   14   13
   10   1   0   0   1   3   18   16   13
   8   0   0   1   1   3   17   14   13
   5   0   1   0   0   2   14   13
   6   1   0   0   1   2   19   13
   2   1   1   1   0   2   17   13
   2   1   0   0   0   2   16   13
   5   1   0   1   1   1   15
   5   0   0   1   0   1   14
   6   1   1   0   1   1   13
   1   1   1   1   1   1   27
   6   0   0   0   1   1   27
   9   0   1   1   1   1   27
   8   0   0   1   1   1   27
   6   1   1   0   0   1   27
   1   1   1   0   1   1   27
   5   1   0   1   0   1   27
   7   0   1   1   1   1   27
   7   0   0   0   1   1   27
   5   1   0   1   0   1   27
   9   1   0   0   0   1   27
   1   1   1   0   0   1   27
   5   0   1   0   0   1   27
   3   1   1   1   1   1   27
   0   0   0   0   0   0 
